Automatically generated mesh
      17
Reciprocal lattice
    0.00000000000000    0.00000000000000    0.00000000000000             1
0.03333333 0.00000000 0.00000000  0
0.06666666 0.03333333 0.00000000  0
    0.20000000000000    0.00000000000000    0.00000000000000             6
    0.40000000000000    0.00000000000000    0.00000000000000             6
    0.20000000000000    0.20000000000000    0.00000000000000            12
    0.40000000000000    0.20000000000000    0.00000000000000            12
   -0.20000000000000    0.40000000000000    0.00000000000000            12
    0.40000000000000    0.40000000000000    0.00000000000000            12
    0.20000000000000    0.20000000000000    0.20000000000000             4
   -0.20000000000000   -0.20000000000000   -0.20000000000000             4
    0.40000000000000    0.20000000000000    0.20000000000000            12
   -0.40000000000000   -0.20000000000000   -0.20000000000000            12
    0.40000000000000    0.40000000000000    0.20000000000000            12
   -0.40000000000000   -0.40000000000000   -0.20000000000000            12
    0.40000000000000    0.40000000000000    0.40000000000000             4
   -0.40000000000000   -0.40000000000000   -0.40000000000000             4
