blebleble
1.0
        4.3831167221         0.0000000000         0.0000000000
        0.0000000000         4.3831167221         0.0000000000
        0.0000000000         0.0000000000         4.3831167221
   Co   Si
    4    4
Direct
     0.854097009         0.645902991         0.354097009
     0.645902991         0.354097009         0.854097009
     0.354097009         0.854097009         0.645902991
     0.145903006         0.145903006         0.145903006
     0.156538993         0.343461007         0.656539023
     0.343461007         0.656539023         0.156538993
     0.656539023         0.156538993         0.343461007
     0.843460977         0.843460977         0.843460977
